Route #1: 75 68 2 62 22 64 42 41 43 1 73 33
Route #2: 6 16 3 44 32 40 9 39 72 12 17
Route #3: 51 63 23 56 49 24 18 50 25 55 31 10 58
Route #4: 38 65 66 11 59 14 53 35 7
Route #5: 8 19 54 13 57 15 37 20 70 60 71 36 69 61 28 74
Route #6: 30 48 21 47 5 29 45 27 52 46
Route #7: 4 34 67 26
Cost 707